Route #1: 23 10 15 4 37 36 5
Route #2: 33 59 21 62 43 39 3 17 46
Route #3: 38 31 61 51 42 6
Route #4: 48 35 32 27 7 65 47
Route #5: 50 44 28 16 18 52
Route #6: 54 57 45 26 22
Route #7: 56 30 14 13 2 34 29 40
Route #8: 60 41 11 9 53 25 20 19
Route #9: 63 24 58 49 55 64 12 8
cost 1197